61
120
84	20
83	16
82	18
81	20
80	20
79	20
78	13
77	15
76	9
75	11
74	20
73	14
72	19
71	15
70	17
69	8
68	15
67	18
66	15
65	15
64	20
63	10
62	21
61	16
60	17
59	15
58	16
57	16
56	15
55	19
54	21
53	11
52	14
51	22
50	21
49	21
48	13
47	11
46	17
45	17
44	11
43	13
42	21
41	12
40	14
39	17
38	13
37	17
36	17
35	17
34	18
33	17
32	21
31	16
30	17
29	15
28	12
27	30
26	18
25	17
24	16
